20
1 0 6
2 0 7
3 0 8
3 2 3
4 0 2
4 2 4
4 3 5
5 0 5
5 1 9
5 2 5
5 4 6
6 0 3
6 1 4
6 3 8
6 4 4
6 5 4
7 0 7
7 1 9
7 2 2
7 3 10
8 2 6
8 5 5
8 6 7
8 7 4
9 1 8
9 2 10
9 3 3
9 4 1
9 6 5
9 7 10
9 8 5
10 0 10
10 2 8
10 4 3
10 6 6
10 7 7
11 0 10
11 2 8
11 3 9
11 7 6
11 8 10
11 9 9
11 10 8
12 1 2
12 2 8
12 3 9
12 4 4
12 5 6
12 6 8
12 9 3
12 10 7
12 11 3
13 1 4
13 3 8
13 6 1
13 10 6
13 11 4
14 1 9
14 2 1
14 5 3
14 6 10
14 7 6
14 8 3
14 10 9
14 11 9
14 12 1
15 0 8
15 1 5
15 4 6
15 6 2
15 8 4
15 12 4
15 14 8
16 0 6
16 1 7
16 4 8
16 5 7
16 7 3
16 9 4
16 11 2
16 12 5
16 13 1
16 14 4
16 15 9
17 0 3
17 1 5
17 3 1
17 5 1
17 7 7
17 9 4
17 12 6
17 16 1
18 1 2
18 3 4
18 4 8
18 6 5
18 7 1
18 8 9
18 11 3
18 14 3
18 16 1
19 1 1
19 4 8
19 5 3
19 7 4
19 9 5
19 10 5
19 12 9
19 13 5
19 16 8
19 17 5
19 18 7
